18
34
50
54
13
43
61
19
26
27
96
62
82
44
0
79
6
72
60
69
84
91
92
64
47
31
38
4
70
25
20
86
55
16
66
22
12
5
37
24
42
2
51
87
21
15
10
77
40
68
39
74
48
8
73
94
14
36
29
49
78
75
80
9
17
98
57
67
59
11
65
95
97
76
46
52
35
53
58
33
90
32
85
83
81
45
28
7
23
88
56
93
41
71
30
63
99
3
1
89
